100
75 75
1 52 987
2 52 897
3 52 723
4 51 110
5 51 944
6 51 395
7 50 85
8 50 73
9 50 429
10 48 847
11 48 248
12 47 111
13 47 187
14 46 397
15 46 643
16 45 598
17 45 745
18 45 254
19 45 80
20 44 687
21 44 25
22 42 118
23 42 121
24 41 880
25 41 631
26 40 503
27 40 76
28 40 995
29 40 597
30 40 513
31 39 983
32 39 979
33 39 130
34 38 248
35 38 939
36 38 93
37 37 89
38 37 264
39 36 929
40 36 420
41 36 312
42 36 683
43 35 507
44 34 567
45 33 965
46 33 376
47 33 183
48 33 501
49 33 750
50 32 830
51 32 757
52 32 260
53 32 238
54 31 904
55 31 817
56 30 248
57 29 648
58 29 859
59 29 994
60 29 655
61 29 691
62 29 473
63 29 123
64 29 937
65 28 378
66 28 407
67 28 250
68 28 929
69 27 918
70 27 258
71 27 859
72 26 66
73 26 89
74 26 7
75 26 281
76 25 255
77 24 410
78 24 163
79 24 890
80 24 945
81 23 574
82 23 611
83 22 231
84 22 866
85 21 752
86 21 516
87 20 630
88 20 543
89 19 319
90 19 498
91 18 608
92 18 901
93 18 781
94 17 740
95 17 805
96 17 26
97 17 728
98 15 688
99 15 333
100 15 608
